c nIsolatedPIs 0
c maxPI 32
p cnf 337 916
c gate 33 4 -20 0
4 -33 0
-20 -33 0
-4 20 33 0
c gate 34 -3 19 0
-3 -34 0
19 -34 0
3 -19 34 0
c gate 35 -2 18 0
-2 -35 0
18 -35 0
2 -18 35 0
c gate 36 -1 17 0
-1 -36 0
17 -36 0
1 -17 36 0
c gate 37 -35 -36 0
-35 -37 0
-36 -37 0
35 36 37 0
c gate 38 2 -18 0
2 -38 0
-18 -38 0
-2 18 38 0
c gate 39 3 -19 0
3 -39 0
-19 -39 0
-3 19 39 0
c gate 40 -38 -39 0
-38 -40 0
-39 -40 0
38 39 40 0
c gate 41 -37 40 0
-37 -41 0
40 -41 0
37 -40 41 0
c gate 42 -34 -41 0
-34 -42 0
-41 -42 0
34 41 42 0
c gate 43 33 -42 0
33 -43 0
-42 -43 0
-33 42 43 0
c gate 44 6 22 0
6 -44 0
22 -44 0
-6 -22 44 0
c gate 45 -6 22 0
-6 -45 0
22 -45 0
6 -22 45 0
c gate 46 6 -22 0
6 -46 0
-22 -46 0
-6 22 46 0
c gate 47 -45 -46 0
-45 -47 0
-46 -47 0
45 46 47 0
c gate 48 5 21 0
5 -48 0
21 -48 0
-5 -21 48 0
c gate 49 -5 21 0
-5 -49 0
21 -49 0
5 -21 49 0
c gate 50 5 -21 0
5 -50 0
-21 -50 0
-5 21 50 0
c gate 51 -49 -50 0
-49 -51 0
-50 -51 0
49 50 51 0
c gate 52 -4 -20 0
-4 -52 0
-20 -52 0
4 20 52 0
c gate 53 4 20 0
4 -53 0
20 -53 0
-4 -20 53 0
c gate 54 -52 -53 0
-52 -54 0
-53 -54 0
52 53 54 0
c gate 55 3 19 0
3 -55 0
19 -55 0
-3 -19 55 0
c gate 56 -34 -39 0
-34 -56 0
-39 -56 0
34 39 56 0
c gate 57 -35 -38 0
-35 -57 0
-38 -57 0
35 38 57 0
c gate 58 1 17 0
1 -58 0
17 -58 0
-1 -17 58 0
c gate 59 -57 58 0
-57 -59 0
58 -59 0
57 -58 59 0
c gate 60 2 18 0
2 -60 0
18 -60 0
-2 -18 60 0
c gate 61 -59 -60 0
-59 -61 0
-60 -61 0
59 60 61 0
c gate 62 -56 -61 0
-56 -62 0
-61 -62 0
56 61 62 0
c gate 63 -55 -62 0
-55 -63 0
-62 -63 0
55 62 63 0
c gate 64 54 63 0
54 -64 0
63 -64 0
-54 -63 64 0
c gate 65 -52 -64 0
-52 -65 0
-64 -65 0
52 64 65 0
c gate 66 -51 65 0
-51 -66 0
65 -66 0
51 -65 66 0
c gate 67 -48 -66 0
-48 -67 0
-66 -67 0
48 66 67 0
c gate 68 -47 -67 0
-47 -68 0
-67 -68 0
47 67 68 0
c gate 69 -44 -68 0
-44 -69 0
-68 -69 0
44 68 69 0
c gate 70 7 23 0
7 -70 0
23 -70 0
-7 -23 70 0
c gate 71 -7 -23 0
-7 -71 0
-23 -71 0
7 23 71 0
c gate 72 -70 -71 0
-70 -72 0
-71 -72 0
70 71 72 0
c gate 73 -69 72 0
-69 -73 0
72 -73 0
69 -72 73 0
c gate 74 69 -72 0
69 -74 0
-72 -74 0
-69 72 74 0
c gate 75 -73 -74 0
-73 -75 0
-74 -75 0
73 74 75 0
c gate 76 18 -61 0
18 -76 0
-61 -76 0
-18 61 76 0
c gate 77 -55 -76 0
-55 -77 0
-76 -77 0
55 76 77 0
c gate 78 54 -77 0
54 -78 0
-77 -78 0
-54 77 78 0
c gate 79 -53 -78 0
-53 -79 0
-78 -79 0
53 78 79 0
c gate 80 -48 79 0
-48 -80 0
79 -80 0
48 -79 80 0
c gate 81 -47 -80 0
-47 -81 0
-80 -81 0
47 80 81 0
c gate 82 -44 -81 0
-44 -82 0
-81 -82 0
44 81 82 0
c gate 83 72 -82 0
72 -83 0
-82 -83 0
-72 82 83 0
c gate 84 -72 82 0
-72 -84 0
82 -84 0
72 -82 84 0
c gate 85 -83 -84 0
-83 -85 0
-84 -85 0
83 84 85 0
c gate 86 -75 85 0
-75 -86 0
85 -86 0
75 -85 86 0
c gate 87 75 -85 0
75 -87 0
-85 -87 0
-75 85 87 0
c gate 88 -86 -87 0
-86 -88 0
-87 -88 0
86 87 88 0
c gate 89 8 -24 0
8 -89 0
-24 -89 0
-8 24 89 0
c gate 90 -8 24 0
-8 -90 0
24 -90 0
8 -24 90 0
c gate 91 -89 -90 0
-89 -91 0
-90 -91 0
89 90 91 0
c gate 92 72 -91 0
72 -92 0
-91 -92 0
-72 91 92 0
c gate 93 -88 92 0
-88 -93 0
92 -93 0
88 -92 93 0
c gate 94 11 27 0
11 -94 0
27 -94 0
-11 -27 94 0
c gate 95 9 25 0
9 -95 0
25 -95 0
-9 -25 95 0
c gate 96 10 26 0
10 -96 0
26 -96 0
-10 -26 96 0
c gate 97 -95 -96 0
-95 -97 0
-96 -97 0
95 96 97 0
c gate 98 -9 -25 0
-9 -98 0
-25 -98 0
9 25 98 0
c gate 99 -8 -24 0
-8 -99 0
-24 -99 0
8 24 99 0
c gate 100 -98 -99 0
-98 -100 0
-99 -100 0
98 99 100 0
c gate 101 8 24 0
8 -101 0
24 -101 0
-8 -24 101 0
c gate 102 -69 -71 0
-69 -102 0
-71 -102 0
69 71 102 0
c gate 103 -70 -102 0
-70 -103 0
-102 -103 0
70 102 103 0
c gate 104 -101 103 0
-101 -104 0
103 -104 0
101 -103 104 0
c gate 105 100 -104 0
100 -105 0
-104 -105 0
-100 104 105 0
c gate 106 97 -105 0
97 -106 0
-105 -106 0
-97 105 106 0
c gate 107 -11 -27 0
-11 -107 0
-27 -107 0
11 27 107 0
c gate 108 -10 -26 0
-10 -108 0
-26 -108 0
10 26 108 0
c gate 109 -107 -108 0
-107 -109 0
-108 -109 0
107 108 109 0
c gate 110 -106 109 0
-106 -110 0
109 -110 0
106 -109 110 0
c gate 111 -94 -110 0
-94 -111 0
-110 -111 0
94 110 111 0
c gate 112 12 -28 0
12 -112 0
-28 -112 0
-12 28 112 0
c gate 113 -12 28 0
-12 -113 0
28 -113 0
12 -28 113 0
c gate 114 -112 -113 0
-112 -114 0
-113 -114 0
112 113 114 0
c gate 115 111 -114 0
111 -115 0
-114 -115 0
-111 114 115 0
c gate 116 -111 114 0
-111 -116 0
114 -116 0
111 -114 116 0
c gate 117 -115 -116 0
-115 -117 0
-116 -117 0
115 116 117 0
c gate 118 -71 -82 0
-71 -118 0
-82 -118 0
71 82 118 0
c gate 119 -70 -118 0
-70 -119 0
-118 -119 0
70 118 119 0
c gate 120 -101 119 0
-101 -120 0
119 -120 0
101 -119 120 0
c gate 121 100 -120 0
100 -121 0
-120 -121 0
-100 120 121 0
c gate 122 97 -121 0
97 -122 0
-121 -122 0
-97 121 122 0
c gate 123 11 -27 0
11 -123 0
-27 -123 0
-11 27 123 0
c gate 124 -11 27 0
-11 -124 0
27 -124 0
11 -27 124 0
c gate 125 -123 -124 0
-123 -125 0
-124 -125 0
123 124 125 0
c gate 126 -108 -125 0
-108 -126 0
-125 -126 0
108 125 126 0
c gate 127 -122 126 0
-122 -127 0
126 -127 0
122 -126 127 0
c gate 128 -94 -127 0
-94 -128 0
-127 -128 0
94 127 128 0
c gate 129 114 -128 0
114 -129 0
-128 -129 0
-114 128 129 0
c gate 130 -114 128 0
-114 -130 0
128 -130 0
114 -128 130 0
c gate 131 -129 -130 0
-129 -131 0
-130 -131 0
129 130 131 0
c gate 132 -117 131 0
-117 -132 0
131 -132 0
117 -131 132 0
c gate 133 117 -131 0
117 -133 0
-131 -133 0
-117 131 133 0
c gate 134 -91 103 0
-91 -134 0
103 -134 0
91 -103 134 0
c gate 135 -93 -134 0
-93 -135 0
-134 -135 0
93 134 135 0
c gate 136 10 -26 0
10 -136 0
-26 -136 0
-10 26 136 0
c gate 137 -10 26 0
-10 -137 0
26 -137 0
10 -26 137 0
c gate 138 -136 -137 0
-136 -138 0
-137 -138 0
136 137 138 0
c gate 139 9 -25 0
9 -139 0
-25 -139 0
-9 25 139 0
c gate 140 -9 25 0
-9 -140 0
25 -140 0
9 -25 140 0
c gate 141 -139 -140 0
-139 -141 0
-140 -141 0
139 140 141 0
c gate 142 -125 -141 0
-125 -142 0
-141 -142 0
125 141 142 0
c gate 143 -138 142 0
-138 -143 0
142 -143 0
138 -142 143 0
c gate 144 -102 -143 0
-102 -144 0
-143 -144 0
102 143 144 0
c gate 145 -118 143 0
-118 -145 0
143 -145 0
118 -143 145 0
c gate 146 -144 -145 0
-144 -146 0
-145 -146 0
144 145 146 0
c gate 147 -135 146 0
-135 -147 0
146 -147 0
135 -146 147 0
c gate 148 -133 147 0
-133 -148 0
147 -148 0
133 -147 148 0
c gate 149 -132 -148 0
-132 -149 0
-148 -149 0
132 148 149 0
c gate 150 93 149 0
93 -150 0
149 -150 0
-93 -149 150 0
c gate 151 -132 -133 0
-132 -151 0
-133 -151 0
132 133 151 0
c gate 152 -114 -151 0
-114 -152 0
-151 -152 0
114 151 152 0
c gate 153 -150 -152 0
-150 -153 0
-152 -153 0
150 152 153 0
c gate 154 -16 -32 0
-16 -154 0
-32 -154 0
16 32 154 0
c gate 155 16 32 0
16 -155 0
32 -155 0
-16 -32 155 0
c gate 156 -154 -155 0
-154 -156 0
-155 -156 0
154 155 156 0
c gate 157 15 31 0
15 -157 0
31 -157 0
-15 -31 157 0
c gate 158 -15 -31 0
-15 -158 0
-31 -158 0
15 31 158 0
c gate 159 -14 -30 0
-14 -159 0
-30 -159 0
14 30 159 0
c gate 160 -158 -159 0
-158 -160 0
-159 -160 0
158 159 160 0
c gate 161 13 29 0
13 -161 0
29 -161 0
-13 -29 161 0
c gate 162 14 30 0
14 -162 0
30 -162 0
-14 -30 162 0
c gate 163 -161 -162 0
-161 -163 0
-162 -163 0
161 162 163 0
c gate 164 -13 -29 0
-13 -164 0
-29 -164 0
13 29 164 0
c gate 165 -12 -28 0
-12 -165 0
-28 -165 0
12 28 165 0
c gate 166 -164 -165 0
-164 -166 0
-165 -166 0
164 165 166 0
c gate 167 12 28 0
12 -167 0
28 -167 0
-12 -28 167 0
c gate 168 128 -167 0
128 -168 0
-167 -168 0
-128 167 168 0
c gate 169 166 -168 0
166 -169 0
-168 -169 0
-166 168 169 0
c gate 170 163 -169 0
163 -170 0
-169 -170 0
-163 169 170 0
c gate 171 160 -170 0
160 -171 0
-170 -171 0
-160 170 171 0
c gate 172 -157 -171 0
-157 -172 0
-171 -172 0
157 171 172 0
c gate 173 156 172 0
156 -173 0
172 -173 0
-156 -172 173 0
c gate 174 -156 -172 0
-156 -174 0
-172 -174 0
156 172 174 0
c gate 175 -173 -174 0
-173 -175 0
-174 -175 0
173 174 175 0
c gate 176 -115 -130 0
-115 -176 0
-130 -176 0
115 130 176 0
c gate 177 13 -29 0
13 -177 0
-29 -177 0
-13 29 177 0
c gate 178 -13 29 0
-13 -178 0
29 -178 0
13 -29 178 0
c gate 179 -177 -178 0
-177 -179 0
-178 -179 0
177 178 179 0
c gate 180 -157 -158 0
-157 -180 0
-158 -180 0
157 158 180 0
c gate 181 14 -30 0
14 -181 0
-30 -181 0
-14 30 181 0
c gate 182 -14 30 0
-14 -182 0
30 -182 0
14 -30 182 0
c gate 183 -181 -182 0
-181 -183 0
-182 -183 0
181 182 183 0
c gate 184 180 -183 0
180 -184 0
-183 -184 0
-180 183 184 0
c gate 185 -179 184 0
-179 -185 0
184 -185 0
179 -184 185 0
c gate 186 -110 -185 0
-110 -186 0
-185 -186 0
110 185 186 0
c gate 187 -127 185 0
-127 -187 0
185 -187 0
127 -185 187 0
c gate 188 -186 -187 0
-186 -188 0
-187 -188 0
186 187 188 0
c gate 189 -176 188 0
-176 -189 0
188 -189 0
176 -188 189 0
c gate 190 -175 -189 0
-175 -190 0
-189 -190 0
175 189 190 0
c gate 191 175 189 0
175 -191 0
189 -191 0
-175 -189 191 0
c gate 192 111 -167 0
111 -192 0
-167 -192 0
-111 167 192 0
c gate 193 166 -192 0
166 -193 0
-192 -193 0
-166 192 193 0
c gate 194 163 -193 0
163 -194 0
-193 -194 0
-163 193 194 0
c gate 195 160 -194 0
160 -195 0
-194 -195 0
-160 194 195 0
c gate 196 -157 -195 0
-157 -196 0
-195 -196 0
157 195 196 0
c gate 197 156 196 0
156 -197 0
196 -197 0
-156 -196 197 0
c gate 198 -156 -196 0
-156 -198 0
-196 -198 0
156 196 198 0
c gate 199 -197 -198 0
-197 -199 0
-198 -199 0
197 198 199 0
c gate 200 -191 199 0
-191 -200 0
199 -200 0
191 -199 200 0
c gate 201 -190 -200 0
-190 -201 0
-200 -201 0
190 200 201 0
c gate 202 -153 -201 0
-153 -202 0
-201 -202 0
153 201 202 0
c gate 203 91 -103 0
91 -203 0
-103 -203 0
-91 103 203 0
c gate 204 -134 -203 0
-134 -204 0
-203 -204 0
134 203 204 0
c gate 205 91 119 0
91 -205 0
119 -205 0
-91 -119 205 0
c gate 206 -91 -119 0
-91 -206 0
-119 -206 0
91 119 206 0
c gate 207 -205 -206 0
-205 -207 0
-206 -207 0
205 206 207 0
c gate 208 204 207 0
204 -208 0
207 -208 0
-204 -207 208 0
c gate 209 -86 -208 0
-86 -209 0
-208 -209 0
86 208 209 0
c gate 210 47 80 0
47 -210 0
80 -210 0
-47 -80 210 0
c gate 211 -81 -210 0
-81 -211 0
-210 -211 0
81 210 211 0
c gate 212 47 67 0
47 -212 0
67 -212 0
-47 -67 212 0
c gate 213 -68 -212 0
-68 -213 0
-212 -213 0
68 212 213 0
c gate 214 211 -213 0
211 -214 0
-213 -214 0
-211 213 214 0
c gate 215 51 -65 0
51 -215 0
-65 -215 0
-51 65 215 0
c gate 216 -66 -215 0
-66 -216 0
-215 -216 0
66 215 216 0
c gate 217 51 79 0
51 -217 0
79 -217 0
-51 -79 217 0
c gate 218 -51 -79 0
-51 -218 0
-79 -218 0
51 79 218 0
c gate 219 -217 -218 0
-217 -219 0
-218 -219 0
217 218 219 0
c gate 220 216 -219 0
216 -220 0
-219 -220 0
-216 219 220 0
c gate 221 -211 213 0
-211 -221 0
213 -221 0
211 -213 221 0
c gate 222 -214 -221 0
-214 -222 0
-221 -222 0
214 221 222 0
c gate 223 -220 222 0
-220 -223 0
222 -223 0
220 -222 223 0
c gate 224 -214 -223 0
-214 -224 0
-223 -224 0
214 223 224 0
c gate 225 -87 -224 0
-87 -225 0
-224 -225 0
87 224 225 0
c gate 226 18 -56 0
18 -226 0
-56 -226 0
-18 56 226 0
c gate 227 -61 -226 0
-61 -227 0
-226 -227 0
61 226 227 0
c gate 228 -216 219 0
-216 -228 0
219 -228 0
216 -219 228 0
c gate 229 -54 -63 0
-54 -229 0
-63 -229 0
54 63 229 0
c gate 230 -64 -229 0
-64 -230 0
-229 -230 0
64 229 230 0
c gate 231 -54 77 0
-54 -231 0
77 -231 0
54 -77 231 0
c gate 232 -78 -231 0
-78 -232 0
-231 -232 0
78 231 232 0
c gate 233 230 232 0
230 -233 0
232 -233 0
-230 -232 233 0
c gate 234 -2 62 0
-2 -234 0
62 -234 0
2 -62 234 0
c gate 235 -233 -234 0
-233 -235 0
-234 -235 0
233 234 235 0
c gate 236 -220 -235 0
-220 -236 0
-235 -236 0
220 235 236 0
c gate 237 -228 -236 0
-228 -237 0
-236 -237 0
228 236 237 0
c gate 238 223 237 0
223 -238 0
237 -238 0
-223 -237 238 0
c gate 239 227 238 0
227 -239 0
238 -239 0
-227 -238 239 0
c gate 240 225 -239 0
225 -240 0
-239 -240 0
-225 239 240 0
c gate 241 209 -240 0
209 -241 0
-240 -241 0
-209 240 241 0
c gate 242 -204 -207 0
-204 -242 0
-207 -242 0
204 207 242 0
c gate 243 -93 -242 0
-93 -243 0
-242 -243 0
93 242 243 0
c gate 244 -241 243 0
-241 -244 0
243 -244 0
241 -243 244 0
c gate 245 -202 -244 0
-202 -245 0
-244 -245 0
202 244 245 0
c gate 246 171 197 0
171 -246 0
197 -246 0
-171 -197 246 0
c gate 247 -245 -246 0
-245 -247 0
-246 -247 0
245 246 247 0
c gate 248 173 195 0
173 -248 0
195 -248 0
-173 -195 248 0
c gate 249 -43 -248 0
-43 -249 0
-248 -249 0
43 248 249 0
c gate 250 -247 249 0
-247 -250 0
249 -250 0
247 -249 250 0
c gate 251 7 -23 0
7 -251 0
-23 -251 0
-7 23 251 0
c gate 252 -7 23 0
-7 -252 0
23 -252 0
7 -23 252 0
c gate 253 47 51 0
47 -253 0
51 -253 0
-47 -51 253 0
c gate 254 33 253 0
33 -254 0
253 -254 0
-33 -253 254 0
c gate 255 -4 20 0
-4 -255 0
20 -255 0
4 -20 255 0
c gate 256 -49 -255 0
-49 -256 0
-255 -256 0
49 255 256 0
c gate 257 42 256 0
42 -257 0
256 -257 0
-42 -256 257 0
c gate 258 -46 -50 0
-46 -258 0
-50 -258 0
46 50 258 0
c gate 259 -257 258 0
-257 -259 0
258 -259 0
257 -258 259 0
c gate 260 -45 -259 0
-45 -260 0
-259 -260 0
45 259 260 0
c gate 261 -254 -260 0
-254 -261 0
-260 -261 0
254 260 261 0
c gate 262 -252 -261 0
-252 -262 0
-261 -262 0
252 261 262 0
c gate 263 -251 -262 0
-251 -263 0
-262 -263 0
251 262 263 0
c gate 264 -90 -263 0
-90 -264 0
-263 -264 0
90 263 264 0
c gate 265 -89 -264 0
-89 -265 0
-264 -265 0
89 264 265 0
c gate 266 -140 -265 0
-140 -266 0
-265 -266 0
140 265 266 0
c gate 267 -139 -266 0
-139 -267 0
-266 -267 0
139 266 267 0
c gate 268 -137 -267 0
-137 -268 0
-267 -268 0
137 267 268 0
c gate 269 -136 -268 0
-136 -269 0
-268 -269 0
136 268 269 0
c gate 270 -124 -269 0
-124 -270 0
-269 -270 0
124 269 270 0
c gate 271 -123 -270 0
-123 -271 0
-270 -271 0
123 270 271 0
c gate 272 -113 -271 0
-113 -272 0
-271 -272 0
113 271 272 0
c gate 273 -112 -272 0
-112 -273 0
-272 -273 0
112 272 273 0
c gate 274 -178 -273 0
-178 -274 0
-273 -274 0
178 273 274 0
c gate 275 -177 -274 0
-177 -275 0
-274 -275 0
177 274 275 0
c gate 276 -182 -275 0
-182 -276 0
-275 -276 0
182 275 276 0
c gate 277 -181 -276 0
-181 -277 0
-276 -277 0
181 276 277 0
c gate 278 -251 -260 0
-251 -278 0
-260 -278 0
251 260 278 0
c gate 279 -252 -278 0
-252 -279 0
-278 -279 0
252 278 279 0
c gate 280 -89 -279 0
-89 -280 0
-279 -280 0
89 279 280 0
c gate 281 -90 -280 0
-90 -281 0
-280 -281 0
90 280 281 0
c gate 282 -139 -281 0
-139 -282 0
-281 -282 0
139 281 282 0
c gate 283 -140 -282 0
-140 -283 0
-282 -283 0
140 282 283 0
c gate 284 -136 -283 0
-136 -284 0
-283 -284 0
136 283 284 0
c gate 285 -137 -284 0
-137 -285 0
-284 -285 0
137 284 285 0
c gate 286 -123 -285 0
-123 -286 0
-285 -286 0
123 285 286 0
c gate 287 -124 -286 0
-124 -287 0
-286 -287 0
124 286 287 0
c gate 288 -112 -287 0
-112 -288 0
-287 -288 0
112 287 288 0
c gate 289 -113 -288 0
-113 -289 0
-288 -289 0
113 288 289 0
c gate 290 -177 -289 0
-177 -290 0
-289 -290 0
177 289 290 0
c gate 291 -178 -290 0
-178 -291 0
-290 -291 0
178 290 291 0
c gate 292 -181 -291 0
-181 -292 0
-291 -292 0
181 291 292 0
c gate 293 -182 -292 0
-182 -293 0
-292 -293 0
182 292 293 0
c gate 294 -156 -180 0
-156 -294 0
-180 -294 0
156 180 294 0
c gate 295 -293 -294 0
-293 -295 0
-294 -295 0
293 294 295 0
c gate 296 -277 -295 0
-277 -296 0
-295 -296 0
277 295 296 0
c gate 297 -180 293 0
-180 -297 0
293 -297 0
180 -293 297 0
c gate 298 277 -297 0
277 -298 0
-297 -298 0
-277 297 298 0
c gate 299 -296 -298 0
-296 -299 0
-298 -299 0
296 298 299 0
c gate 300 -183 290 0
-183 -300 0
290 -300 0
183 -290 300 0
c gate 301 -275 300 0
-275 -301 0
300 -301 0
275 -300 301 0
c gate 302 -179 -289 0
-179 -302 0
-289 -302 0
179 289 302 0
c gate 303 -273 302 0
-273 -303 0
302 -303 0
273 -302 303 0
c gate 304 114 287 0
114 -304 0
287 -304 0
-114 -287 304 0
c gate 305 271 304 0
271 -305 0
304 -305 0
-271 -304 305 0
c gate 306 -114 -287 0
-114 -306 0
-287 -306 0
114 287 306 0
c gate 307 -271 306 0
-271 -307 0
306 -307 0
271 -306 307 0
c gate 308 -125 -285 0
-125 -308 0
-285 -308 0
125 285 308 0
c gate 309 -269 308 0
-269 -309 0
308 -309 0
269 -308 309 0
c gate 310 -138 -283 0
-138 -310 0
-283 -310 0
138 283 310 0
c gate 311 -267 310 0
-267 -311 0
310 -311 0
267 -310 311 0
c gate 312 -141 -281 0
-141 -312 0
-281 -312 0
141 281 312 0
c gate 313 -265 312 0
-265 -313 0
312 -313 0
265 -312 313 0
c gate 314 -72 253 0
-72 -314 0
253 -314 0
72 -253 314 0
c gate 315 43 -314 0
43 -315 0
-314 -315 0
-43 314 315 0
c gate 316 -91 -279 0
-91 -316 0
-279 -316 0
91 279 316 0
c gate 317 -263 316 0
-263 -317 0
316 -317 0
263 -316 317 0
c gate 318 -315 -317 0
-315 -318 0
-317 -318 0
315 317 318 0
c gate 319 -313 318 0
-313 -319 0
318 -319 0
313 -318 319 0
c gate 320 -311 319 0
-311 -320 0
319 -320 0
311 -319 320 0
c gate 321 -309 320 0
-309 -321 0
320 -321 0
309 -320 321 0
c gate 322 -307 321 0
-307 -322 0
321 -322 0
307 -321 322 0
c gate 323 -305 322 0
-305 -323 0
322 -323 0
305 -322 323 0
c gate 324 -303 323 0
-303 -324 0
323 -324 0
303 -323 324 0
c gate 325 -301 324 0
-301 -325 0
324 -325 0
301 -324 325 0
c gate 326 -299 325 0
-299 -326 0
325 -326 0
299 -325 326 0
c gate 327 -250 326 0
-250 -327 0
326 -327 0
250 -326 327 0
c gate 328 -245 327 0
-245 -328 0
327 -328 0
245 -327 328 0
c gate 329 225 -238 0
225 -329 0
-238 -329 0
-225 238 329 0
c gate 330 209 -329 0
209 -330 0
-329 -330 0
-209 329 330 0
c gate 331 -242 -330 0
-242 -331 0
-330 -331 0
242 330 331 0
c gate 332 149 331 0
149 -332 0
331 -332 0
-149 -331 332 0
c gate 333 153 -332 0
153 -333 0
-332 -333 0
-153 332 333 0
c gate 334 -201 -333 0
-201 -334 0
-333 -334 0
201 333 334 0
c gate 335 -327 -334 0
-327 -335 0
-334 -335 0
327 334 335 0
c gate 336 -328 -335 0
-328 -336 0
-335 -336 0
328 335 336 0
c gate 337 43 -336 0
43 -337 0
-336 -337 0
-43 336 337 0
c PO
337 0
